% File represents an instance of a Composite Structure problem to be solved by a CP framework
% Created on 2025-03-26 10:42:06.957
T = 50;
n = 36;
m = 60;
edges = [(1, 2),
(7, 8),
(13, 14),
(19, 20),
(25, 26),
(31, 32),
(3, 2),
(8, 9),
(14, 15),
(20, 21),
(26, 27),
(32, 33),
(4, 3),
(10, 9),
(16, 15),
(22, 21),
(28, 27),
(34, 33),
(4, 5),
(11, 10),
(17, 16),
(22, 23),
(29, 28),
(35, 34),
(6, 5),
(12, 11),
(18, 17),
(24, 23),
(29, 30),
(36, 35),
(7, 1),
(13, 7),
(19, 13),
(19, 25),
(25, 31),
(8, 2),
(14, 8),
(20, 14),
(20, 26),
(26, 32),
(3, 9),
(15, 9),
(21, 15),
(21, 27),
(27, 33),
(4, 10),
(16, 10),
(22, 16),
(22, 28),
(28, 34),
(11, 5),
(17, 11),
(17, 23),
(29, 23),
(29, 35),
(12, 6),
(18, 12),
(18, 24),
(24, 30),
(36, 30)];
counts = [|6, 16, 6, 4,
|6, 12, 6, 2,
|6, 14, 6, 6,
|6, 16, 6, 10,
|4, 16, 4, 10,
|4, 18, 4, 10,
|8, 18, 8, 4,
|8, 14, 8, 2,
|6, 12, 6, 2,
|6, 14, 6, 6,
|6, 16, 6, 10,
|6, 20, 6, 10,
|8, 20, 8, 8,
|8, 16, 8, 6,
|6, 16, 6, 4,
|8, 16, 8, 6,
|8, 16, 8, 10,
|8, 20, 8, 12,
|10, 20, 10, 10,
|10, 18, 10, 6,
|8, 16, 8, 6,
|8, 16, 8, 12,
|8, 16, 8, 8,
|8, 18, 8, 10,
|10, 16, 10, 8,
|8, 16, 8, 6,
|6, 16, 6, 4,
|8, 16, 8, 6,
|8, 18, 8, 8,
|8, 16, 8, 6,
|10, 14, 10, 6,
|8, 14, 8, 4,
|6, 14, 6, 4,
|6, 16, 6, 6,
|6, 16, 6, 8,
|8, 16, 8, 8|];
